results_rootrelaxation/bin024_050_010.srr.sol
solution status: optimal solution found
objective value:                                    0
_var1236_                          0.0294388384792963 	(obj:0)
_var7034_                           0.211212332072952 	(obj:0)
_var7036_                          0.0989732035989335 	(obj:0)
_var7066_                          0.0867888586163925 	(obj:0)
_var7067_                          0.0789341177164503 	(obj:0)
_var7068_                           0.117535546574003 	(obj:0)
_var7069_                          0.0370674417739254 	(obj:0)
_var7073_                            0.36767194968019 	(obj:0)
_var7075_                          0.0196361932958187 	(obj:0)
_var7076_                           0.294289604346041 	(obj:0)
_var7078_                          0.0842864818637415 	(obj:0)
_var7079_                           0.090234476139935 	(obj:0)
_var7092_                          0.0901413566353232 	(obj:0)
_var7095_                           0.414962399355542 	(obj:0)
_var7098_                          0.0155428485803234 	(obj:0)
_var7099_                          0.0349878820789408 	(obj:0)
_var7100_                           0.146541205710252 	(obj:0)
_var7101_                           0.066071568423479 	(obj:0)
_var7104_                           0.262757808912048 	(obj:0)
_var7106_                           0.132241156642883 	(obj:0)
_var7115_                           0.105480398770863 	(obj:0)
_var7116_                          0.0562507263029918 	(obj:0)
_var7117_                           0.325016081771248 	(obj:0)
_var7120_                           0.273375024288126 	(obj:0)
_var7123_                           0.209918243285954 	(obj:0)
_var7124_                           0.131198032241697 	(obj:0)
_var7129_                           0.262249728772051 	(obj:0)
_var7131_                           0.215712729775753 	(obj:0)
_var7133_                          0.0433001192210233 	(obj:0)
_var7135_                          0.0454675254235163 	(obj:0)
_var7139_                            0.24712643423533 	(obj:0)
_var7147_                           0.102503541288809 	(obj:0)
_var7148_                          0.0560204349537506 	(obj:0)
_var7155_                          0.0226466556532618 	(obj:0)
_var7156_                           0.153756317824538 	(obj:0)
_var7161_                          0.0936569168463472 	(obj:0)
_var7166_                           0.232940766013391 	(obj:0)
_var7170_                          0.0229046266541152 	(obj:0)
_var7171_                          0.0955200438514738 	(obj:0)
_var7179_                          0.0878060784545663 	(obj:0)
_var7189_                           0.207915527855714 	(obj:0)
_var7190_                          0.0252617998800709 	(obj:0)
_var7191_                          0.0431699550897341 	(obj:0)
_var7193_                          0.0926395867794202 	(obj:0)
_var7196_                           0.176401080728811 	(obj:0)
_var7200_                           0.109495817868852 	(obj:0)
_var7201_                           0.104078488613065 	(obj:0)
_var7206_                          0.0666931933820188 	(obj:0)
_var7209_                          0.0175743953734863 	(obj:0)
_var7213_                            0.19780286063527 	(obj:0)
_var7216_                          0.0367222927217459 	(obj:0)
_var7218_                          0.0780024676600535 	(obj:0)
_var7221_                           0.122920171738386 	(obj:0)
_var7222_                          0.0981233610585744 	(obj:0)
_var7223_                           0.116909273723029 	(obj:0)
_var7224_                            0.11321388168057 	(obj:0)
_var7225_                          0.0479262853415154 	(obj:0)
_var7226_                          0.0281535503108119 	(obj:0)
_var7229_                          0.0359124500962885 	(obj:0)
_var7233_                         0.00914602771675217 	(obj:0)
_var7234_                          0.0846645611820205 	(obj:0)
_var7238_                          0.0207408338333561 	(obj:0)
_var7239_                           0.102580801534613 	(obj:0)
_var7241_                           0.242300731283842 	(obj:0)
_var7249_                           0.257965115903863 	(obj:0)
_var7251_                          0.0264519536607486 	(obj:0)
_var7253_                          0.0651479577825649 	(obj:0)
_var7255_                           0.137527434996448 	(obj:0)
_var7259_                          0.0951494640087933 	(obj:0)
_var7260_                           0.179513253603183 	(obj:0)
_var7261_                           0.233441681973165 	(obj:0)
_var7263_                           0.214130093407277 	(obj:0)
_var7268_                           0.342765045342163 	(obj:0)
_var7269_                           0.190397257637448 	(obj:0)
_var7270_                          0.0669400245524555 	(obj:0)
_var7271_                          0.0831477753474425 	(obj:0)
_var7273_                           0.183622274561211 	(obj:0)
_var7278_                          0.0355440606316101 	(obj:0)
_var7279_                          0.0914134980892275 	(obj:0)
_var7281_                          0.0254539490596987 	(obj:0)
_var7284_                           0.206441199529864 	(obj:0)
_var7289_                          0.0379436943742055 	(obj:0)
_var7291_                          0.0327160874823682 	(obj:0)
_var7294_                           0.137654647743595 	(obj:0)
_var7299_                           0.155636503830376 	(obj:0)
_var7300_                           0.182659006010623 	(obj:0)
_var7301_                           0.136753037464901 	(obj:0)
_var7304_                          0.0161296441744604 	(obj:0)
_var7306_                          0.0126306108891755 	(obj:0)
_var7309_                          0.0264190727053425 	(obj:0)
_var7312_                           0.280854460651453 	(obj:0)
_var7313_                           0.105702204090254 	(obj:0)
_var7316_                           0.163240576891734 	(obj:0)
_var7320_                           0.312246221193595 	(obj:0)
_var7322_                          0.0129763536954301 	(obj:0)
_var7323_                           0.116665018987374 	(obj:0)
_var7325_                          0.0737269263743499 	(obj:0)
_var7328_                          0.0685166325712707 	(obj:0)
_var7329_                           0.102037704484281 	(obj:0)
_var7332_                          0.0650440973069279 	(obj:0)
_var7333_                           0.139236791325315 	(obj:0)
_var7334_                           0.222843573141986 	(obj:0)
_var7335_                          0.0372467853354057 	(obj:0)
_var7337_                          0.0927879264737156 	(obj:0)
_var7339_                         0.00708382371697993 	(obj:0)
_var7340_                         0.00249416315711212 	(obj:0)
_var7342_                           0.194026053050032 	(obj:0)
_var7343_                          0.0765285484642972 	(obj:0)
_var7344_                          0.0706683839384072 	(obj:0)
_var7345_                           0.136374417149007 	(obj:0)
_var7347_                          0.0206771963871644 	(obj:0)
_var7351_                            0.08617300781686 	(obj:0)
_var7352_                          0.0821919937603977 	(obj:0)
_var7354_                          0.0479221824615137 	(obj:0)
_var7355_                           0.162259704830397 	(obj:0)
_var7357_                          0.0197060901919996 	(obj:0)
_var7358_                           0.216210728237472 	(obj:0)
_var7359_                           0.186957170154848 	(obj:0)
_var7362_                           0.129508553963749 	(obj:0)
_var7364_                           0.128209737927697 	(obj:0)
_var7365_                           0.123498371925854 	(obj:0)
_var7366_                           0.114477076205522 	(obj:0)
_var7367_                           0.270936714633596 	(obj:0)
_var7368_                         0.00381758329958976 	(obj:0)
_var7369_                           0.130254072117114 	(obj:0)
_var7370_                          0.0689691905018315 	(obj:0)
_var7372_                          0.0691024418293858 	(obj:0)
_var7373_                         0.00960313523394966 	(obj:0)
_var7374_                          0.0875044832625525 	(obj:0)
_var7375_                          0.0832694295904539 	(obj:0)
_var7382_                          0.0245787114238498 	(obj:0)
_var7383_                          0.0141500733379118 	(obj:0)
_var7385_                          0.0171698490838933 	(obj:0)
_var7386_                          0.0708006451990863 	(obj:0)
_var7387_                           0.122521967919018 	(obj:0)
_var7389_                          0.0838146561139887 	(obj:0)
_var7391_                         0.00970350793794492 	(obj:0)
_var7392_                          0.0912787358890393 	(obj:0)
_var7393_                          0.0313760824980223 	(obj:0)
_var7394_                          0.0240620464570106 	(obj:0)
_var7395_                          0.0892194660893845 	(obj:0)
_var7397_                         0.00570272417563428 	(obj:0)
_var7398_                          0.0629894902103791 	(obj:0)
_var7399_                          0.0606549457892933 	(obj:0)
_var7400_                          0.0237225775178331 	(obj:0)
_var7401_                           0.132804988138377 	(obj:0)
_var7403_                          0.0125031805328547 	(obj:0)
_var7404_                          0.0117362463105914 	(obj:0)
_var7406_                           0.179183022147759 	(obj:0)
_var7408_                           0.092901279404952 	(obj:0)
_var7409_                           0.209003945507697 	(obj:0)
_var7411_                          0.0687198868811976 	(obj:0)
_var7414_                          0.0633312416739547 	(obj:0)
_var7416_                          0.0372450996770383 	(obj:0)
_var7419_                           0.028881876681743 	(obj:0)
_var7425_                          0.0850449330045247 	(obj:0)
_var7427_                            0.12520633897798 	(obj:0)
_var7429_                            0.13652673581325 	(obj:0)
_var7430_                          0.0557385338568129 	(obj:0)
_var7431_                           0.125966439671589 	(obj:0)
_var7432_                          0.0561497289375834 	(obj:0)
_var7433_                           0.127041980392817 	(obj:0)
_var7435_                           0.048818076599598 	(obj:0)
_var7436_                           0.190007383210012 	(obj:0)
_var7438_                          0.0902190282661236 	(obj:0)
_var7439_                          0.0160440357801375 	(obj:0)
_var7440_                          0.0345670490258904 	(obj:0)
_var7441_                          0.0274664139330401 	(obj:0)
_var7443_                           0.104781689238857 	(obj:0)
_var7446_                          0.0499649080454432 	(obj:0)
_var7447_                          0.0553521852140579 	(obj:0)
_var7450_                          0.0104659795787993 	(obj:0)
_var7451_                          0.0733322232193918 	(obj:0)
_var7452_                          0.0426660258389108 	(obj:0)
_var7453_                          0.0646760845531501 	(obj:0)
_var7454_                          0.0129518235345519 	(obj:0)
_var7455_                          0.0170766331754388 	(obj:0)
_var7456_                          0.0893704966771726 	(obj:0)
_var7457_                           0.174090453455515 	(obj:0)
_var7458_                           0.028215299041185 	(obj:0)
_var7459_                          0.0629913031237802 	(obj:0)
_var7464_                          0.0289706139036047 	(obj:0)
_var7465_                          0.0972573008031961 	(obj:0)
_var7466_                          0.0793810504661059 	(obj:0)
_var7469_                         0.00553342170354468 	(obj:0)
_var7470_                          0.0494781163225538 	(obj:0)
_var7471_                          0.0900266184156782 	(obj:0)
_var7472_                          0.0277049328567137 	(obj:0)
_var7473_                           0.133086777250503 	(obj:0)
_var7474_                          0.0571948620187642 	(obj:0)
_var7475_                         0.00376945189466071 	(obj:0)
_var7476_                           0.085164605594624 	(obj:0)
_var7478_                           0.053312129812533 	(obj:0)
_var7479_                          0.0594394614022304 	(obj:0)
_var7480_                          0.0331502543857553 	(obj:0)
_var7481_                           0.144374204891437 	(obj:0)
_var7483_                         0.00780165835293872 	(obj:0)
_var7484_                         0.00457117955251933 	(obj:0)
_var7485_                          0.0695321061155264 	(obj:0)
_var7486_                           0.101768093197604 	(obj:0)
_var7487_                           0.156396756644604 	(obj:0)
_var7488_                          0.0333517742104954 	(obj:0)
_var7492_                           0.120866465327425 	(obj:0)
_var7494_                           0.121139901201416 	(obj:0)
_var7499_                          0.0560037226825798 	(obj:0)
_var7500_                         0.00743345119977344 	(obj:0)
_var7501_                          0.0297805757025975 	(obj:0)
_var7502_                          0.0947466940343962 	(obj:0)
_var7503_                         0.00303922609200948 	(obj:0)
_var7504_                         0.00964052766556355 	(obj:0)
_var7505_                          0.0583860775566091 	(obj:0)
_var7506_                           0.148242906772971 	(obj:0)
_var7508_                          0.0103308075817819 	(obj:0)
_var7509_                          0.0790533071806396 	(obj:0)
_var7510_                         0.00331682252519972 	(obj:0)
_var7511_                           0.021753854421247 	(obj:0)
_var7512_                           0.139075885706394 	(obj:0)
_var7513_                          0.0523670096922887 	(obj:0)
_var7516_                         0.00629001527208667 	(obj:0)
_var7518_                           0.155395896096537 	(obj:0)
_var7519_                           0.032886451041705 	(obj:0)
_var7522_                          0.0196841430965788 	(obj:0)
_var7524_                         0.00529349405679022 	(obj:0)
_var7526_                          0.0545244167506736 	(obj:0)
_var7527_                          0.0537632351587113 	(obj:0)
_var7528_                          0.0579314567597744 	(obj:0)
_var7529_                          0.0080095217145972 	(obj:0)
_var7530_                            0.06751341832361 	(obj:0)
_var7531_                          0.0274195846633908 	(obj:0)
_var7532_                          0.0689743314943179 	(obj:0)
_var7535_                          0.0524721880077631 	(obj:0)
_var7537_                         0.00674873723705527 	(obj:0)
_var7538_                          0.0344275958235537 	(obj:0)
_var7540_                          0.0164318845643406 	(obj:0)
_var7541_                          0.0230682645083371 	(obj:0)
_var7542_                          0.0116411679036595 	(obj:0)
_var7546_                           0.136011592712055 	(obj:0)
_var7548_                          0.0905188966802308 	(obj:0)
_var7550_                          0.0227360832889054 	(obj:0)
_var7551_                          0.0689374907255111 	(obj:0)
_var7552_                          0.0407410779096883 	(obj:0)
_var7554_                          0.0484535269788871 	(obj:0)
_var7556_                          0.0254068960566785 	(obj:0)
_var7561_                         0.00795110761079081 	(obj:0)
_var7562_                          0.0380744330930415 	(obj:0)
_var7564_                          0.0798442910899633 	(obj:0)
_var7565_                         0.00374816673929128 	(obj:0)
_var7567_                           0.057312270610686 	(obj:0)
_var7568_                          0.0652254940648654 	(obj:0)
_var7570_                         0.00249746051848726 	(obj:0)
_var7575_                         0.00707942365648942 	(obj:0)
_var7577_                          0.0175373595785327 	(obj:0)
_var7578_                          0.0622965487512305 	(obj:0)
_var7579_                          0.0834061247630531 	(obj:0)
_var7582_                          0.0525530662551354 	(obj:0)
_var7583_                          0.0428694858943219 	(obj:0)
_var7584_                           0.041265971522979 	(obj:0)
_var7586_                         0.00724517752041334 	(obj:0)
_var7587_                          0.0197748819407492 	(obj:0)
_var7589_                          0.0348237719395718 	(obj:0)
_var7591_                          0.0139172872802361 	(obj:0)
_var7601_                          0.0400297723574362 	(obj:0)
_var7602_                          0.0495647722647192 	(obj:0)
_var7603_                          0.0533371472579673 	(obj:0)
_var7604_                          0.0229991723542875 	(obj:0)
_var7606_                          0.0726436667467358 	(obj:0)
_var7609_                         0.00935916295146499 	(obj:0)
_var7614_                         0.00707504986607337 	(obj:0)
_var7615_                         0.000853559321365036 	(obj:0)
_var7617_                         0.00203209875176395 	(obj:0)
_var7618_                          0.0330726788578432 	(obj:0)
_var7621_                          0.0147917321979778 	(obj:0)
_var7622_                          0.0134623803152752 	(obj:0)
_var7625_                          0.0148131811281175 	(obj:0)
_var7631_                         0.00837233876477973 	(obj:0)
